benchmark_str_length/p1_10_3-3.dzn
Alphabet = {A,C,G,T};
ns = 10;
nc = 3;
sl = 3;
neighbours = [| I(C),I(A),I(A) | I(C),I(A),I(A) | I(A),I(A),I(A) | I(C),I(A),I(C) | I(C),I(A),I(A) | I(C),I(A),I(G) | I(A),I(C),I(A) | I(A),I(G),I(A) | I(A),I(C),I(A) | I(A),I(C),I(A) |];
