benchmark_str_length/p1_10_3-3.txt
{
	"num_strings": 10,
	"alphabet": "ACGT",
	"strings": [
		"CAA",
		"CAA",
		"AAA",
		"CAC",
		"CAA",
		"CAG",
		"ACA",
		"AGA",
		"ACA",
		"ACA"
	],
	"str_length":[3,3,3,3,3,3,3,3,3,3]
}